c Source: TUDataset AIDS, graph #366
c Original: n=10, m=14
c Augmented: +7 edges, n=13 -> m=21, circuit_rank=9
c Augmented to satisfy Eulerian condition (no parallel edges)
p sp 13
e 4 5
e 3 8
e 2 6
e 1 4
e 5 7
e 4 6
e 6 7
e 1 3
e 7 8
e 2 8
e 8 9
e 1 2
e 3 5
e 9 10
e 1 11
e 2 11
e 3 12
e 5 12
e 4 13
e 6 13
e 7 10
